Version identifier: 20.1.0.0 | 2020-11-10 | 9bedb6d68
CPXPARAM_Threads                                 1
CPXPARAM_TimeLimit                               7200
CPXPARAM_MIP_Tolerances_MIPGap                   0
Generic callback                                 0x60
1 of 1 MIP starts provided solutions.
MIP start 'm1' defined initial solution with objective 793.9655.
Tried aggregator 1 time.
Reduced MIP has 800801 rows, 801001 columns, and 2401000 nonzeros.
Reduced MIP has 1000 binaries, 0 generals, 0 SOSs, and 0 indicators.
Presolve time = 0.82 sec. (759.66 ticks)
Probing time = 0.10 sec. (100.05 ticks)
Tried aggregator 1 time.
Reduced MIP has 800801 rows, 801001 columns, and 2401000 nonzeros.
Reduced MIP has 1000 binaries, 0 generals, 0 SOSs, and 0 indicators.
Presolve time = 0.80 sec. (746.68 ticks)
Probing time = 0.10 sec. (100.05 ticks)
MIP emphasis: balance optimality and feasibility.
MIP search method: dynamic search.
Parallel mode: none, using 1 thread.
Root relaxation solution time = 0.26 sec. (308.31 ticks)

        Nodes                                         Cuts/
   Node  Left     Objective  IInf  Best Integer    Best Bound    ItCnt     Gap

*     0+    0                          793.9655     4368.0000           450.15%
      0     0      800.2399     4      793.9655     4368.0000        0  450.15%
      0     2      800.2399     4      793.9655      800.2399        0    0.79%
Elapsed time = 3192.60 sec. (2759894.73 ticks, tree = 0.01 MB, solutions = 1)
      1     3      797.5145     4      793.9655      800.2397    17401    0.79%
*     2     2      integral     0      796.8313      800.2397    20336    0.43%
      2     2      796.8313     0      796.8313      797.5144    20336    0.09%
*     3     1      integral     0      797.4569      797.5137    23462    0.01%
      4     0        cutoff            797.4569      797.4569    23509    0.00%

User cuts applied:  7

Root node processing (before b&c):
  Real time             = 3192.45 sec. (2759745.69 ticks)
Sequential b&c:
  Real time             =  922.53 sec. (542099.22 ticks)
                          ------------
Total (root+branch&cut) = 4114.98 sec. (3301844.91 ticks)
@Parameters: 
is_S_cut                                true
is_add_all_yinF                         true
is_start_value                          true
is_usercut                              true
is_visualization                        false
uc_only_rootnode                        false

data                                    Qi
fn                                      data/Qi/instance_800_1000.csv
mode                                    ZLP
solver                                  cplex

p                                       2
r                                       50

EPS                                     1.0e-06
EPS_vio                                 1.0e-04
beta                                    0.10
gap                                     0.00
nodelimit                               Inf
timelimit                               7200.00


@PrintInfos
ItCnt: 23509
Current gap: 0.00 %
Termination Status: OPTIMAL
Primal Status: FEASIBLE_POINT
Solve Time: 4114.98 sec
Objective Value: 797.456878
Number of Nodes:      5

CutInfo: [phase] num / time (sec) 
ZLP             [phase1]     0 / 0.00 [rLC]     4 / 9.25 [rUC]     2 / 3.36 [sLC]     1 / 4.39 [sUC]     4 / 7.06 
OldSubmodular   [phase1]     0 / 0.00 [rLC]     0 / 0.00 [rUC]     0 / 0.00 [sLC]     0 / 0.00 [sUC]     0 / 0.00 
NewSubmodular   [phase1]     0 / 0.00 [rLC]     0 / 0.00 [rUC]     0 / 0.00 [sLC]     0 / 0.00 [sUC]     0 / 0.00 
PMP             [phase1]     0 / 0.00 [rLC]     5 / 3.31 [rUC]     2 / 1.12 [sLC]     3 / 2.51 [sUC]     4 / 2.41 
Separation Round: [phase1] 0  [rLC] 5  [rUC] 2  [sLC] 3  [sUC] 4
Root Best Bound 797.514442
Root Best Integer: 796.831312
Best Bound: 797.456878
Best Integer: 797.456878

